
Gurobi 7.5.2 (linux64) logging started Sat Jun 23 16:31:12 2018

Changed value of parameter LogFile to result/ilp/simNo_6-n_100-m_40-s_4-minVAF_0.05-cov_2000-k_1-fn_0.15-fp_0.0001-na_0.15.ILP.gurobiSolverLog
   Prev: gurobi.log  Default: 
Changed value of parameter TimeLimit to 86400.0
   Prev: 1e+100  Min: 0.0  Max: 1e+100  Default: 1e+100
Optimize a model with 1265601 rows, 330440 columns and 3489120 nonzeros
Variable types: 0 continuous, 330440 integer (330440 binary)
Coefficient statistics:
  Matrix range     [3e-03, 3e+00]
  Objective range  [2e+00, 1e+01]
  Bounds range     [1e+00, 1e+00]
  RHS range        [3e-01, 2e+00]
Found heuristic solution: objective -14127.48520
Presolve removed 335005 rows and 213953 columns (presolve time = 6s) ...
Presolve removed 335567 rows and 213953 columns (presolve time = 10s) ...
Presolve removed 336526 rows and 213953 columns (presolve time = 15s) ...
Presolve removed 336526 rows and 213953 columns (presolve time = 20s) ...
Presolve removed 336526 rows and 213953 columns (presolve time = 26s) ...
Presolve removed 336526 rows and 213953 columns (presolve time = 30s) ...
Presolve removed 336526 rows and 213953 columns (presolve time = 35s) ...
Presolve removed 336526 rows and 213953 columns (presolve time = 40s) ...
Presolve removed 336526 rows and 213953 columns (presolve time = 45s) ...
Presolve removed 336526 rows and 213953 columns
Presolve time: 47.81s
Presolved: 929075 rows, 116487 columns, 2577125 nonzeros
Variable types: 0 continuous, 116487 integer (116487 binary)
Presolved: 116487 rows, 1045562 columns, 2693612 nonzeros

Presolve removed 116487 rows and 1045562 columns

Root simplex log...

Iteration    Objective       Primal Inf.    Dual Inf.      Time
       0    1.0628155e+01   0.000000e+00   9.627000e+04     59s
    7461   -1.8734343e+02   0.000000e+00   1.111530e+05     60s
   20116   -3.1210736e+02   0.000000e+00   6.604905e+04     65s
   33868   -3.5455552e+02   0.000000e+00   1.226643e+04     70s
   36023   -3.5939143e+02   0.000000e+00   0.000000e+00     72s
   36023   -3.5939143e+02   0.000000e+00   0.000000e+00     74s

Root relaxation: objective -3.593914e+02, 36023 iterations, 22.63 seconds
Total elapsed time = 75.70s
Total elapsed time = 106.18s
Total elapsed time = 121.51s
Total elapsed time = 139.20s

    Nodes    |    Current Node    |     Objective Bounds      |     Work
 Expl Unexpl |  Obj  Depth IntInf | Incumbent    BestBd   Gap | It/Node Time

     0     0 -359.39143    0 1167 -14127.485 -359.39143  97.5%     -  146s
H    0     0                    -419.7803791 -359.39143  14.4%     -  167s
     0     0 -364.86229    0 1165 -419.78038 -364.86229  13.1%     -  195s
     0     0 -370.20215    0 1144 -419.78038 -370.20215  11.8%     -  237s
     0     0 -370.96120    0 1162 -419.78038 -370.96120  11.6%     -  262s
     0     0 -371.25783    0 1164 -419.78038 -371.25783  11.6%     -  274s
     0     0 -371.25918    0 1165 -419.78038 -371.25918  11.6%     -  281s
     0     0 -372.32306    0 1103 -419.78038 -372.32306  11.3%     -  298s
     0     0 -372.32306    0 1095 -419.78038 -372.32306  11.3%     -  318s
     0     0 -374.09127    0 1196 -419.78038 -374.09127  10.9%     -  352s
     0     0 -374.15148    0 1090 -419.78038 -374.15148  10.9%     -  382s
     0     0 -374.15148    0 1088 -419.78038 -374.15148  10.9%     -  391s
     0     0 -376.96466    0 1050 -419.78038 -376.96466  10.2%     -  438s
     0     0 -376.96466    0 1037 -419.78038 -376.96466  10.2%     -  456s
     0     0 -379.28665    0 1075 -419.78038 -379.28665  9.65%     -  497s
     0     0 -379.28665    0 1078 -419.78038 -379.28665  9.65%     -  515s
     0     0 -381.49481    0 1282 -419.78038 -381.49481  9.12%     -  567s
     0     0 -381.50366    0 1272 -419.78038 -381.50366  9.12%     -  596s
     0     0 -381.50430    0 1273 -419.78038 -381.50430  9.12%     -  608s
     0     0 -384.08919    0 1058 -419.78038 -384.08919  8.50%     -  643s
     0     0 -384.08919    0 1054 -419.78038 -384.08919  8.50%     -  666s
     0     0 -386.76461    0 1151 -419.78038 -386.76461  7.87%     -  702s
     0     0 -386.79461    0 1105 -419.78038 -386.79461  7.86%     -  726s
     0     0 -386.79461    0 1102 -419.78038 -386.79461  7.86%     -  736s
     0     0 -388.58823    0 1131 -419.78038 -388.58823  7.43%     -  783s
     0     0 -388.59573    0 1091 -419.78038 -388.59573  7.43%     -  808s
     0     0 -388.85625    0 1124 -419.78038 -388.85625  7.37%     -  825s
     0     0 -388.89967    0 1126 -419.78038 -388.89967  7.36%     -  837s
     0     0 -388.89967    0 1126 -419.78038 -388.89967  7.36%     -  845s
     0     0 -390.29460    0 1121 -419.78038 -390.29460  7.02%     -  877s
     0     0 -390.60814    0 1120 -419.78038 -390.60814  6.95%     -  903s
     0     0 -390.93629    0 1120 -419.78038 -390.93629  6.87%     -  917s
     0     0 -390.93629    0 1120 -419.78038 -390.93629  6.87%     -  926s
     0     0 -392.52440    0 1074 -419.78038 -392.52440  6.49%     -  970s
     0     0 -392.81083    0 1073 -419.78038 -392.81083  6.42%     - 1007s
     0     0 -392.87162    0 1072 -419.78038 -392.87162  6.41%     - 1019s
     0     0 -392.87162    0 1072 -419.78038 -392.87162  6.41%     - 1027s
     0     0 -393.90551    0 1058 -419.78038 -393.90551  6.16%     - 1062s
     0     0 -394.08474    0 1271 -419.78038 -394.08474  6.12%     - 1110s
     0     0 -394.12260    0 1274 -419.78038 -394.12260  6.11%     - 1128s
     0     0 -394.12358    0 1271 -419.78038 -394.12358  6.11%     - 1138s
     0     0 -395.14177    0 1306 -419.78038 -395.14177  5.87%     - 1175s
     0     0 -396.20764    0 1247 -419.78038 -396.20764  5.62%     - 1216s
     0     0 -396.22358    0 1249 -419.78038 -396.22358  5.61%     - 1228s
     0     0 -396.22358    0 1249 -419.78038 -396.22358  5.61%     - 1238s
     0     0 -398.22316    0 1292 -419.78038 -398.22316  5.14%     - 1309s
     0     0 -398.30535    0 1280 -419.78038 -398.30535  5.12%     - 1346s
     0     0 -398.32325    0 1289 -419.78038 -398.32325  5.11%     - 1360s
     0     0 -398.33765    0 1294 -419.78038 -398.33765  5.11%     - 1372s
     0     0 -398.34005    0 1305 -419.78038 -398.34005  5.11%     - 1384s
     0     0 -399.25186    0 1305 -419.78038 -399.25186  4.89%     - 1416s
     0     0 -399.25186    0 1307 -419.78038 -399.25186  4.89%     - 1440s
     0     0 -400.41308    0 1290 -419.78038 -400.41308  4.61%     - 1480s
     0     0 -400.71663    0 1032 -419.78038 -400.71663  4.54%     - 1512s
     0     0 -400.71663    0 1033 -419.78038 -400.71663  4.54%     - 1521s
     0     0 -402.02975    0 1295 -419.78038 -402.02975  4.23%     - 1566s
     0     0 -402.26360    0 1293 -419.78038 -402.26360  4.17%     - 1599s
     0     0 -402.30841    0 1290 -419.78038 -402.30841  4.16%     - 1612s
     0     0 -402.30841    0 1296 -419.78038 -402.30841  4.16%     - 1622s
     0     0 -402.90285    0 1294 -419.78038 -402.90285  4.02%     - 1648s
     0     0 -402.97039    0 1284 -419.78038 -402.97039  4.00%     - 1677s
     0     0 -403.10034    0 1313 -419.78038 -403.10034  3.97%     - 1693s
     0     0 -403.29837    0 1311 -419.78038 -403.29837  3.93%     - 1704s
     0     0 -403.31232    0 1303 -419.78038 -403.31232  3.92%     - 1714s
     0     0 -403.42630    0 1293 -419.78038 -403.42630  3.90%     - 1734s
     0     0 -403.42630    0 1295 -419.78038 -403.42630  3.90%     - 1743s
     0     0 -403.77144    0 1298 -419.78038 -403.77144  3.81%     - 1774s
     0     0 -404.30637    0 1309 -419.78038 -404.30637  3.69%     - 1810s
     0     0 -404.30637    0 1303 -419.78038 -404.30637  3.69%     - 1821s
     0     0 -404.85548    0 1306 -419.78038 -404.85548  3.56%     - 1855s
     0     0 -404.94519    0 1297 -419.78038 -404.94519  3.53%     - 1880s
     0     0 -404.94519    0 1307 -419.78038 -404.94519  3.53%     - 1891s
     0     0 -405.19926    0 1282 -419.78038 -405.19926  3.47%     - 1921s
     0     0 -405.19926    0 1286 -419.78038 -405.19926  3.47%     - 1947s
     0     0 -405.45794    0 1308 -419.78038 -405.45794  3.41%     - 1979s
     0     0 -405.67747    0 1305 -419.78038 -405.67747  3.36%     - 2012s
     0     0 -405.72721    0 1312 -419.78038 -405.72721  3.35%     - 2026s
     0     0 -405.73370    0 1315 -419.78038 -405.73370  3.35%     - 2038s
     0     0 -405.74195    0 1312 -419.78038 -405.74195  3.34%     - 2049s
     0     0 -405.76877    0 1317 -419.78038 -405.76877  3.34%     - 2065s
     0     0 -405.76877    0 1319 -419.78038 -405.76877  3.34%     - 2076s
     0     0 -405.77558    0 1295 -419.78038 -405.77558  3.34%     - 2105s
     0     0 -406.00037    0 1303 -419.78038 -406.00037  3.28%     - 2135s
     0     0 -406.17983    0 1309 -419.78038 -406.17983  3.24%     - 2152s
     0     0 -406.26304    0 1296 -419.78038 -406.26304  3.22%     - 2169s
     0     0 -406.26304    0 1296 -419.78038 -406.26304  3.22%     - 2179s
     0     0 -406.26304    0 1298 -419.78038 -406.26304  3.22%     - 2199s
     0     0 -406.29343    0 1303 -419.78038 -406.29343  3.21%     - 2232s
     0     0 -406.29343    0 1305 -419.78038 -406.29343  3.21%     - 2244s
     0     0 -406.29343    0 1310 -419.78038 -406.29343  3.21%     - 2265s
     0     0 -406.33211    0 1307 -419.78038 -406.33211  3.20%     - 2287s
     0     0 -406.33211    0 1310 -419.78038 -406.33211  3.20%     - 2298s
     0     0 -406.91565    0 1258 -419.78038 -406.91565  3.06%     - 2514s
     0     0 -407.18310    0 1298 -419.78038 -407.18310  3.00%     - 2548s
     0     0 -407.37205    0 1297 -419.78038 -407.37205  2.96%     - 2568s
     0     0 -407.54630    0 1312 -419.78038 -407.54630  2.91%     - 2589s
     0     0 -407.55182    0 1310 -419.78038 -407.55182  2.91%     - 2599s
     0     0 -407.55287    0 1303 -419.78038 -407.55287  2.91%     - 2608s
     0     0 -408.54325    0 1282 -419.78038 -408.54325  2.68%     - 2652s
     0     0 -408.85144    0 1300 -419.78038 -408.85144  2.60%     - 2697s
     0     0 -408.88999    0 1305 -419.78038 -408.88999  2.59%     - 2712s
     0     0 -408.90834    0 1305 -419.78038 -408.90834  2.59%     - 2726s
     0     0 -408.90834    0 1311 -419.78038 -408.90834  2.59%     - 2736s
     0     0 -409.24232    0 1297 -419.78038 -409.24232  2.51%     - 2764s
     0     0 -409.45479    0 1288 -419.78038 -409.45479  2.46%     - 2797s
     0     0 -409.48990    0 1297 -419.78038 -409.48990  2.45%     - 2813s
     0     0 -409.51740    0 1293 -419.78038 -409.51740  2.44%     - 2827s
     0     0 -409.56046    0 1298 -419.78038 -409.56046  2.43%     - 2843s
     0     0 -409.56148    0 1300 -419.78038 -409.56148  2.43%     - 2854s
     0     0 -410.32264    0 1292 -419.78038 -410.32264  2.25%     - 2887s
     0     0 -410.39127    0 1294 -419.78038 -410.39127  2.24%     - 2913s
     0     0 -410.39818    0 1294 -419.78038 -410.39818  2.24%     - 2925s
     0     0 -410.39818    0 1294 -419.78038 -410.39818  2.24%     - 2934s
     0     0 -410.39890    0 1296 -419.78038 -410.39890  2.23%     - 2956s
     0     0 -410.40203    0 1296 -419.78038 -410.40203  2.23%     - 2974s
     0     0 -410.40754    0 1293 -419.78038 -410.40754  2.23%     - 2999s
     0     0 -410.40831    0 1293 -419.78038 -410.40831  2.23%     - 3018s
     0     0 -410.40831    0 1281 -419.78038 -410.40831  2.23%     - 3182s
     0     0 -410.40831    0 1281 -419.78038 -410.40831  2.23%     - 3210s
     0     2 -410.40928    0 1281 -419.78038 -410.40928  2.23%     - 3487s
     1     3 -411.00241    1  952 -419.78038 -410.40928  2.23%  1618 3501s
     2     4 -412.26491    2  770 -419.78038 -410.40928  2.23%   976 3511s
     3     5 -416.11478    3  488 -419.78038 -410.40928  2.23%   769 3521s
     4     4     cutoff    4      -419.78038 -410.40928  2.23%   764 3535s
     6     6 -416.33727    5  475 -419.78038 -410.40928  2.23%   606 3545s
     8     6 -416.56733    6  480 -419.78038 -410.40928  2.23%   551 3553s
     9     7 -417.45707    7  470 -419.78038 -410.40928  2.23%   516 3556s
    10     6     cutoff    8      -419.78038 -410.40928  2.23%   483 3560s
    11     7 -417.95676    8  354 -419.78038 -410.40928  2.23%   459 3565s
    15     9 -418.18471   11  400 -419.78038 -410.40928  2.23%   378 3572s
    17     9 -418.64062   12  349 -419.78038 -410.40928  2.23%   348 3576s
    21     7     cutoff   14      -419.78038 -410.40928  2.23%   297 3581s
    23     7 -410.92438    1 1276 -419.78038 -410.92438  2.11%   409 3611s
    24     8 -412.15714    2 1248 -419.78038 -410.92750  2.11%   477 3634s
    25     9 -412.16678    3 1240 -419.78038 -410.92750  2.11%   475 3641s
    26    10 -413.05162    4 1251 -419.78038 -410.92750  2.11%   493 3656s
    27    11 -414.18591    5 1526 -419.78038 -410.92750  2.11%   622 3699s
    28    12 -415.34514    6 1116 -419.78038 -410.92750  2.11%   623 3709s
    29    13 -416.60765    7  940 -419.78038 -410.92750  2.11%   612 3717s
    30    12     cutoff    8      -419.78038 -410.92750  2.11%   626 3728s
    31    11     cutoff    8      -419.78038 -410.92750  2.11%   614 3730s
    32    12 -417.21552    7 1118 -419.78038 -410.92750  2.11%   622 3744s
    33    11     cutoff    8      -419.78038 -410.92750  2.11%   613 3748s
    34    10     cutoff    8      -419.78038 -410.92750  2.11%   599 3751s
    35     9     cutoff    6      -419.78038 -410.92750  2.11%  1026 3992s
    36    10 -417.12432    2 1012 -419.78038 -411.00241  2.09%  1113 4039s
    37    11 -418.38682    3  724 -419.78038 -411.00241  2.09%  1099 4052s
    39    13 -418.38682    5  731 -419.78038 -411.00241  2.09%  1044 4056s
    40    14 -419.29863    6  718 -419.78038 -411.00241  2.09%  1033 4063s
    41    13     cutoff    6      -419.78038 -411.00241  2.09%  1015 4066s
    44    10     cutoff    5      -419.78038 -411.00241  2.09%   956 4072s
    45    11 -412.87279    2  949 -419.78038 -412.15878  1.82%   950 4084s
    46    12 -416.72265    3  664 -419.78038 -412.15878  1.82%   957 4107s
    47    13 -416.81700    4  652 -419.78038 -412.15878  1.82%   943 4111s
    48    12     cutoff    5      -419.78038 -412.15878  1.82%   934 4120s
    49    13 -416.90680    5  661 -419.78038 -412.15878  1.82%   924 4126s
    50    12     cutoff    4      -419.78038 -412.15878  1.82%   917 4134s
    51    13 -417.78308    6  659 -419.78038 -412.15878  1.82%   912 4142s
    52    12     cutoff    7      -419.78038 -412.15878  1.82%   900 4147s
    53    13 -418.19991    7  657 -419.78038 -412.15878  1.82%   893 4155s
    54    14 -418.63477    8  646 -419.78038 -412.15878  1.82%   885 4164s
    55    13     cutoff    8      -419.78038 -412.15878  1.82%   872 4167s
    56    14 -418.89620    9  646 -419.78038 -412.15878  1.82%   864 4174s
    57    13     cutoff    9      -419.78038 -412.15878  1.82%   853 4177s
    59    13 -419.27553   10  642 -419.78038 -412.15878  1.82%   839 4189s
    60    14 -419.72972   11  620 -419.78038 -412.15878  1.82%   832 4197s
    63    11     cutoff   11      -419.78038 -412.15878  1.82%   795 4200s
    64    12 -416.81818    3 1008 -419.78038 -412.16687  1.81%   808 4227s
    65    13 -418.08069    4  784 -419.78038 -412.16687  1.81%   805 4238s
    66    14 -418.53660    5  782 -419.78038 -412.16687  1.81%   795 4242s
    67    15 -419.44841    6  732 -419.78038 -412.16687  1.81%   786 4248s
    68    14     cutoff    6      -419.78038 -412.16687  1.81%   778 4251s
    70    12     cutoff    5      -419.78038 -412.16687  1.81%   761 4257s
    72    12 -419.09827    4  886 -419.78038 -412.28758  1.78%   780 4289s
    73    11     cutoff    5      -419.78038 -412.28758  1.78%   774 4293s
    74    10     cutoff    5      -419.78038 -412.28758  1.78%   768 4297s
    75    11 -412.92344    3  788 -419.78038 -412.87666  1.64%   764 4303s
    76    12 -414.29116    4  490 -419.78038 -412.87666  1.64%   758 4313s
    77    13 -418.47779    5  280 -419.78038 -412.87666  1.64%   783 4348s
    78    14 -418.61989    6  286 -419.78038 -412.87666  1.64%   776 4350s
    79    15 -419.41565    7  210 -419.78038 -412.87666  1.64%   768 4357s
    81    13     cutoff    8      -419.78038 -412.87666  1.64%   751 4360s
    84    12 -414.30952    5  469 -419.78038 -412.87666  1.64%   730 4369s
    85    13 -414.62945    6  481 -419.78038 -412.87666  1.64%   732 4380s
    86    14 -418.86857    7  276 -419.78038 -412.87666  1.64%   737 4401s
    88    14     cutoff    9      -419.78038 -412.87666  1.64%   721 4406s
    89    13     cutoff    9      -419.78038 -412.87666  1.64%   718 4411s
    91    13 -415.22133    7  491 -419.78038 -412.87666  1.64%   709 4421s
    92    14 -415.37330    8  487 -419.78038 -412.87666  1.64%   704 4425s
    93    15 -415.67723    9  428 -419.78038 -412.87666  1.64%   700 4431s
    94    16 -416.13314   10  412 -419.78038 -412.87666  1.64%   697 4436s
    95    17 -417.04495   11  413 -419.78038 -412.87666  1.64%   695 4444s
    96    18 -417.04495   12  401 -419.78038 -412.87666  1.64%   688 4445s
    97    19 -417.34889   13  402 -419.78038 -412.87666  1.64%   686 4453s
    98    20 -417.95676   14  399 -419.78038 -412.87666  1.64%   682 4460s
    99    21 -418.65815   15  403 -419.78038 -412.87666  1.64%   679 4466s
   100    20     cutoff   16      -419.78038 -412.87666  1.64%   676 4471s
   102    22 -419.59802   17  363 -419.78038 -412.87666  1.64%   669 4483s
   105    19     cutoff   17      -419.78038 -412.87666  1.64%   652 4486s
   106    18     cutoff   15      -419.78038 -412.87666  1.64%   649 4490s
   108    16     cutoff   13      -419.78038 -412.87666  1.64%   643 4497s
   109    17 -413.63653    3  987 -419.78038 -412.92344  1.63%   645 4508s
   110    18 -413.98722    4  939 -419.78038 -412.92344  1.63%   642 4516s
   111    19 -414.59510    5  953 -419.78038 -412.92344  1.63%   639 4529s
   112    20 -414.59510    6  915 -419.78038 -412.92344  1.63%   634 4530s
   113    21 -415.35494    7  896 -419.78038 -412.92344  1.63%   631 4538s
   114    22 -415.81084    8  887 -419.78038 -412.92344  1.63%   627 4544s
   115    23 -416.26675    9  785 -419.78038 -412.92344  1.63%   623 4549s
   116    24 -416.72265   10  810 -419.78038 -412.92344  1.63%   620 4556s
   117    25 -417.45210   11  809 -419.78038 -412.92344  1.63%   617 4563s
   118    26 -418.54627   12  645 -419.78038 -412.92344  1.63%   614 4569s
   119    27 -418.56463   13  593 -419.78038 -412.92344  1.63%   611 4575s
   120    28 -418.74699   14  582 -419.78038 -412.92344  1.63%   610 4582s
   121    29 -419.33247   15  584 -419.78038 -412.92344  1.63%   610 4589s
   122    28     cutoff   16      -419.78038 -412.92344  1.63%   606 4591s
   124    26     cutoff   15      -419.78038 -412.92344  1.63%   601 4597s
   125    25     cutoff   14      -419.78038 -412.92344  1.63%   598 4600s
   126    26 -413.19699    4  760 -419.78038 -413.05568  1.60%   595 4606s
   127    27 -413.83525    5  748 -419.78038 -413.05568  1.60%   594 4616s
   128    28 -414.03064    6  692 -419.78038 -413.05568  1.60%   592 4622s
   129    29 -414.65588    7  720 -419.78038 -413.05568  1.60%   591 4630s
   131    31 -415.65887    9  675 -419.78038 -413.05568  1.60%   586 4640s
   132    32 -415.93242   10  712 -419.78038 -413.05568  1.60%   583 4645s
   133    33 -416.72265   11  646 -419.78038 -413.05568  1.60%   581 4651s
   134    34 -416.74101   12  594 -419.78038 -413.05568  1.60%   579 4657s
   135    35 -416.92337   13  580 -419.78038 -413.05568  1.60%   579 4663s
   136    36 -417.77557   14  586 -419.78038 -413.05568  1.60%   579 4672s
   137    37 -417.95676   15  550 -419.78038 -413.05568  1.60%   576 4676s
   138    38 -418.44306   16  552 -419.78038 -413.05568  1.60%   575 4682s
   140    40 -418.56463   18  509 -419.78038 -413.05568  1.60%   567 4685s
   141    41 -419.17251   19  480 -419.78038 -413.05568  1.60%   565 4690s
   143    43 -419.42579   21  424 -419.78038 -413.05568  1.60%   561 4695s
   146    40     cutoff   21      -419.78038 -413.05568  1.60%   552 4700s
   148    42 -419.42579   21  422 -419.78038 -413.05568  1.60%   547 4707s
   151    39     cutoff   21      -419.78038 -413.05568  1.60%   539 4712s
   152    38     cutoff    5      -419.78038 -413.22343  1.56%   548 4734s
   153    37     cutoff    5      -419.78038 -413.63653  1.46%   550 4746s
   154    38 -414.89903    4  648 -419.78038 -413.84045  1.42%   549 4755s
   155    39 -414.99717    5  634 -419.78038 -413.84045  1.42%   548 4760s
   156    40 -415.24564    6  629 -419.78038 -413.84045  1.42%   549 4770s
   157    41 -415.91209    7  638 -419.78038 -413.84045  1.42%   549 4779s
   158    42 -416.36800    8  622 -419.78038 -413.84045  1.42%   549 4786s
   159    43 -416.89298    9  618 -419.78038 -413.84045  1.42%   549 4792s
   160    44 -417.71361   10  617 -419.78038 -413.84045  1.42%   550 4802s
   161    45 -417.72036   11  620 -419.78038 -413.84045  1.42%   547 4805s
   162    46 -418.13044   12  623 -419.78038 -413.84045  1.42%   546 4810s
   163    45     cutoff   13      -419.78038 -413.84045  1.42%   545 4815s
   164    46 -419.05093   13  573 -419.78038 -413.84045  1.42%   544 4820s
   165    47 -419.65880   14  565 -419.78038 -413.84045  1.42%   542 4826s
   169    45 -417.93840    6  490 -419.78038 -413.98722  1.38%   533 4839s
   170    46 -418.03654    7  490 -419.78038 -413.98722  1.38%   533 4843s
   171    45     cutoff    7      -419.78038 -413.98722  1.38%   531 4848s
   172    44     cutoff    8      -419.78038 -413.98722  1.38%   530 4851s
   173    45 -418.14672    8  492 -419.78038 -413.98722  1.38%   529 4855s
   174    46 -418.99883    9  485 -419.78038 -413.98722  1.38%   529 4861s
   176    44     cutoff    9      -419.78038 -413.98722  1.38%   525 4865s
   178    46 -419.21050   11  428 -419.78038 -413.98722  1.38%   523 4874s
   179    45     cutoff   12      -419.78038 -413.98722  1.38%   521 4876s
   181    45 -419.32447   12  433 -419.78038 -413.98722  1.38%   518 4884s
   182    44     cutoff   13      -419.78038 -413.98722  1.38%   516 4886s
   184    44 -416.72265    5  646 -419.78038 -414.04002  1.37%   516 4898s
   185    43     cutoff    6      -419.78038 -414.04002  1.37%   516 4908s
   186    44 -416.82518    6  630 -419.78038 -414.04002  1.37%   516 4913s
   187    43     cutoff    7      -419.78038 -414.04002  1.37%   516 4920s
   188    44 -417.15547    7  639 -419.78038 -414.04002  1.37%   516 4926s
   189    45 -417.91754    8  643 -419.78038 -414.04002  1.37%   515 4936s
   190    46 -418.56463    9  634 -419.78038 -414.04002  1.37%   516 4944s
   191    47 -419.37513   10  636 -419.78038 -414.04002  1.37%   516 4951s
   193    45     cutoff   11      -419.78038 -414.04002  1.37%   512 4955s
   195    43     cutoff    9      -419.78038 -414.04002  1.37%   511 4965s
   196    42     cutoff    7      -419.78038 -414.31037  1.30%   513 4979s
   197    41     cutoff    6      -419.78038 -414.59510  1.24%   515 4994s
   198    40     cutoff    6      -419.78038 -414.65372  1.22%   516 5006s
   199    39     cutoff    7      -419.78038 -414.65588  1.22%   517 5018s
   200    40 -416.11478    8  494 -419.78038 -414.74718  1.20%   517 5027s
   201    41 -416.21292    9  490 -419.78038 -414.74718  1.20%   516 5032s
   202    40     cutoff    9      -419.78038 -414.74718  1.20%   518 5047s
   203    41 -416.22912   10  433 -419.78038 -414.74718  1.20%   517 5052s
   204    40     cutoff   11      -419.78038 -414.74718  1.20%   516 5062s
   205    41 -417.08837   11  429 -419.78038 -414.74718  1.20%   517 5072s
   206    40     cutoff   12      -419.78038 -414.74718  1.20%   517 5084s
   207    41 -417.71361   12  430 -419.78038 -414.74718  1.20%   517 5091s
   208    42 -417.95676   13  430 -419.78038 -414.74718  1.20%   517 5099s
   209    41     cutoff   13      -419.78038 -414.74718  1.20%   517 5104s
   210    42 -418.34068   14  422 -419.78038 -414.74718  1.20%   517 5113s
   211    41     cutoff   15      -419.78038 -414.74718  1.20%   515 5116s
   212    42 -418.86857   15  421 -419.78038 -414.74718  1.20%   515 5122s
   213    41     cutoff   16      -419.78038 -414.74718  1.20%   514 5126s
   215    39     cutoff   14      -419.78038 -414.74718  1.20%   511 5131s
   216    40 -419.76202    9  523 -419.78038 -414.90206  1.16%   515 5151s
   218    40     cutoff   11      -419.78038 -414.90206  1.16%   512 5155s
   221    39     cutoff   11      -419.78038 -414.90206  1.16%   506 5160s
   223    37     cutoff    5      -419.78038 -415.03388  1.13%   506 5174s
   224    36     cutoff    6      -419.78038 -415.22133  1.09%   509 5188s
   225    35     cutoff    8      -419.78038 -415.24564  1.08%   510 5201s
   226    34     cutoff    7      -419.78038 -415.35494  1.05%   516 5221s
   227    35 -418.54627    8  651 -419.78038 -415.37425  1.05%   516 5233s
   228    36 -418.56463    9  594 -419.78038 -415.37425  1.05%   515 5239s
   229    37 -418.74699   10  581 -419.78038 -415.37425  1.05%   515 5246s
   230    38 -419.33247   11  582 -419.78038 -415.37425  1.05%   516 5257s
   232    36     cutoff   12      -419.78038 -415.37425  1.05%   513 5261s
   234    34     cutoff   10      -419.78038 -415.37425  1.05%   511 5268s
   235    33     cutoff    9      -419.78038 -415.65887  0.98%   511 5275s
   236    34 -419.76202   10  515 -419.78038 -415.68036  0.98%   511 5286s
   241    31     cutoff   10      -419.78038 -415.82240  0.94%   503 5296s
   242    30     cutoff    9      -419.78038 -415.91209  0.92%   503 5303s
   243    29     cutoff    8      -419.78038 -415.93470  0.92%   504 5312s
   244    28     cutoff   11      -419.78038 -416.13314  0.87%   503 5319s
   245    27     cutoff   11      -419.78038 -416.22584  0.85%   504 5327s
   246    26     cutoff   10      -419.78038 -416.27654  0.83%   503 5334s
   247    25     cutoff   10      -419.78038 -416.33727  0.82%   504 5342s
   248    24     cutoff    6      -419.78038 -416.36800  0.81%   503 5349s
   249    23     cutoff    9      -419.78038 -416.71880  0.73%   503 5356s
   250    22     cutoff    7      -419.78038 -416.72265  0.73%   502 5360s
   251    21     cutoff   12      -419.78038 -416.72265  0.73%   503 5368s
   252    20     cutoff   11      -419.78038 -416.74101  0.72%   502 5374s
   253    19     cutoff   13      -419.78038 -416.82579  0.70%   502 5383s
   254    20 -418.68856    4  998 -419.78038 -416.91685  0.68%   505 5400s
   255    21 -419.14447    5  909 -419.78038 -416.91685  0.68%   504 5405s
   258    18     cutoff    5      -419.78038 -416.91685  0.68%   500 5411s
   259    17     cutoff    6      -419.78038 -416.92815  0.68%   500 5416s
   260    16     cutoff   14      -419.78038 -417.01284  0.66%   500 5421s
   261    15     cutoff   10      -419.78038 -417.04495  0.65%   500 5425s
   262    14     cutoff   12      -419.78038 -417.12432  0.63%   500 5431s
   263    15 -418.99470    3  897 -419.78038 -417.15860  0.62%   500 5444s
   264    16 -418.99470    4  897 -419.78038 -417.15860  0.62%   498 5447s
   265    17 -419.45060    5  906 -419.78038 -417.15860  0.62%   497 5454s
   266    16     cutoff    6      -419.78038 -417.15860  0.62%   496 5455s
   270    12     cutoff    8      -419.78038 -417.45210  0.55%   496 5476s
   271    13 -418.54627   12  788 -419.78038 -417.71361  0.49%   499 5489s
   272    14 -419.00218   13  762 -419.78038 -417.71361  0.49%   497 5492s
   274    14     cutoff   15      -419.78038 -417.71361  0.49%   494 5496s
   277    11     cutoff   13      -419.78038 -417.71361  0.49%   491 5500s
   278    10     cutoff   11      -419.78038 -417.74533  0.48%   491 5506s
   280     8     cutoff   15      -419.78038 -417.95676  0.43%   491 5515s
   283     5     cutoff    4      -419.78038 -418.44499  0.32%   489 5520s
   285     3     cutoff   13      -419.78038 -418.54627  0.29%   487 5527s
   286     2     cutoff    9      -419.78038 -418.56463  0.29%   487 5530s

Cutting planes:
  Gomory: 1
  Zero half: 785

Explored 289 nodes (288618 simplex iterations) in 5535.47 seconds
Thread count was 1 (of 80 available processors)

Solution count 2: -419.78 -14127.5 

Optimal solution found (tolerance 1.00e-04)
Best objective -4.197803791056e+02, best bound -4.197803791056e+02, gap 0.0000%
